data/solutions/recovery/wellformed/moderate/flexible/wellformed_moderate_instance53/53.sol
Elapsed time: 0.03
Upper bound: 4223.0
Planning weighted value: 133776.0
C[0]=4223.0
C[1]=4132.0
C[2]=4123.0
C[3]=3976.0
C[4]=3885.0
y[0]=2
y[1]=2
y[2]=3
y[3]=2
y[4]=4
y[5]=3
y[6]=1
y[7]=0
y[8]=1
y[9]=3
y[10]=0
y[11]=0
y[12]=3
y[13]=4
y[14]=0
y[15]=3
y[16]=2
y[17]=4
y[18]=1
y[19]=4
