data/solutions/recovery/wellformed/moderate/flexible/wellformed_moderate_instance53/53.log

Log started (V12.6.3.0) Fri Apr 20 20:56:38 2018

New value for default parallel thread count: 1

Problem '/tmp/tmpjUadER.pyomo.lp' read.
Read time = 0.00 sec. (0.03 ticks)

Problem name         : /tmp/tmpjUadER.pyomo.lp
Objective sense      : Minimize
Variables            :     107  [Nneg: 1,  Binary: 100,  General Integer: 6]
Objective nonzeros   :       1
Linear constraints   :      51  [Less: 25,  Equal: 26]
  Nonzeros           :    1811
  RHS nonzeros       :      41

Variables            : Min LB: 0.000000         Max UB: 1.000000       
Objective nonzeros   : Min   : 1.000000         Max   : 1.000000       
Linear constraints   :
  Nonzeros           : Min   : 1.000000         Max   : 1636.000       
  RHS nonzeros       : Min   : 1.000000         Max   : 2.000000       
Tried aggregator 2 times.
MIP Presolve eliminated 20 rows and 5 columns.
Aggregator did 6 substitutions.
Reduced MIP has 25 rows, 96 columns, and 271 nonzeros.
Reduced MIP has 95 binaries, 1 generals, 0 SOSs, and 0 indicators.
Presolve time = 0.00 sec. (0.73 ticks)
Found incumbent of value 20339.000000 after 0.00 sec. (0.90 ticks)
Probing time = 0.00 sec. (0.08 ticks)
Cover probing fixed 0 vars, tightened 3 bounds.
Tried aggregator 1 time.
Reduced MIP has 25 rows, 96 columns, and 271 nonzeros.
Reduced MIP has 95 binaries, 1 generals, 0 SOSs, and 0 indicators.
Presolve time = 0.00 sec. (0.19 ticks)
Probing time = 0.00 sec. (0.06 ticks)
Clique table members: 19.
MIP emphasis: balance optimality and feasibility.
MIP search method: dynamic search.
Parallel mode: none, using 1 thread.
Root relaxation solution time = 0.00 sec. (0.08 ticks)

        Nodes                                         Cuts/
   Node  Left     Objective  IInf  Best Integer    Best Bound    ItCnt     Gap

*     0+    0                        20339.0000     1636.0000            91.96%
      0     0     4067.8000     7    20339.0000     4067.8000        6   80.00%
*     0+    0                         4668.0000     4067.8000            12.86%
      0     0     4104.5352    14     4668.0000      Fract: 5       38   12.07%
*     0+    0                         4567.0000     4104.5352            10.13%
      0     0     4139.7881    14     4567.0000       Cuts: 6       66    9.35%
*     0+    0                         4223.0000     4139.7881             1.97%
      0     0     4142.2662    16     4223.0000    MIRcuts: 4       71    1.91%
      0     0     4142.5869    18     4223.0000       Cuts: 8       78    1.90%
      0     0     4152.0237    18     4223.0000       Cuts: 7       99    1.68%
      0     0     4173.7836    23     4223.0000    MIRcuts: 8      123    1.17%

Repeating presolve.
Tried aggregator 2 times.
MIP Presolve eliminated 5 rows and 49 columns.
Aggregator did 6 substitutions.
Reduced MIP has 14 rows, 41 columns, and 115 nonzeros.
Reduced MIP has 40 binaries, 1 generals, 0 SOSs, and 0 indicators.
Presolve time = 0.00 sec. (0.13 ticks)
Probing time = 0.00 sec. (0.02 ticks)
Tried aggregator 1 time.
Reduced MIP has 14 rows, 41 columns, and 115 nonzeros.
Reduced MIP has 40 binaries, 1 generals, 0 SOSs, and 0 indicators.
Presolve time = 0.00 sec. (0.07 ticks)
Represolve time = 0.00 sec. (0.37 ticks)
Probing time = 0.00 sec. (0.02 ticks)
Clique table members: 9.
MIP emphasis: balance optimality and feasibility.
MIP search method: dynamic search.
Parallel mode: none, using 1 thread.
Root relaxation solution time = 0.00 sec. (0.26 ticks)

        Nodes                                         Cuts/
   Node  Left     Objective  IInf  Best Integer    Best Bound    ItCnt     Gap

*     0+    0                         4223.0000     4173.7836             1.17%
      0     0     4188.7177    17     4223.0000     4188.7177      172    0.81%
      0     0        cutoff           4223.0000                    207    0.00%
Elapsed time = 0.02 sec. (10.57 ticks, tree = 0.01 MB, solutions = 4)

Cover cuts applied:  3
Flow cuts applied:  1
Mixed integer rounding cuts applied:  10
Lift and project cuts applied:  1
Gomory fractional cuts applied:  2

Root node processing (before b&c):
  Real time             =    0.02 sec. (10.58 ticks)
Sequential b&c:
  Real time             =    0.00 sec. (0.00 ticks)
                          ------------
Total (root+branch&cut) =    0.02 sec. (10.58 ticks)

Solution pool: 4 solutions saved.

MIP - Integer optimal solution:  Objective =  4.2230000000e+03
Solution time =    0.02 sec.  Iterations = 207  Nodes = 0
Deterministic time = 10.58 ticks  (571.46 ticks/sec)


Incumbent solution written to file '/tmp/tmpbEX3N7.cplex.sol'.
